3 16 1 10
12 2 15 17 6 3 11 12 18 9 18 1 3 1 5 5 
0.41 0.75 3.53 5.56 0.24 1.16 3.65 3.63 5.19 1.72 2.23 2.83 5.41 3.94 4.73 7.31 
4 4 4 4 4 4 4 4 4 4 4 4 4 4 4 4 
0.19 6.13 4.47 7.79 2.07 3.22 3.32 4.42 2.27 2.45 5.55 4.69 3.52 2.2 1.25 3.64 
1 1 1 1 1 1 1 1 1 1 1 1 1 1 1 1 
1 1 1 1 1 1 1 1 1 1 1 1 1 1 1 1 
1 1 1 1 1 1 1 1 1 1 1 1 1 1 1 1 
0.01 0.01 0.01 0.01 0.01 0.01 0.01 0.01 0.01 0.01 0.01 0.01 0.01 0.01 0.01 0.01 
0.02 0.02 0.02 0.02 0.02 0.02 0.02 0.02 0.02 0.02 0.02 0.02 0.02 0.02 0.02 0.02 
1 1 1 1 1 1 1 1 1 1 1 1 1 1 1 1 
